# Synthetic RCP for GISMO 
1	1.0	1.0	-41.0	170.3
2	1.0	1.0	-30.9	170.3
3	1.0	1.0	-20.7	170.4
4	1.0	1.0	-10.7	170.5
5	1.0	1.0	-0.6	170.7
6	1.0	1.0	9.4	170.9
7	1.0	1.0	19.4	171.1
8	1.0	1.0	29.3	171.3
9	0.122	1.0	-39.2	151.1
10	0.141	1.0	-29.0	151.1
11	0.128	1.0	-18.9	151.2
12	1.0	1.0	-8.8	151.3
13	1.0	1.0	1.3	151.5
14	0.042	1.0	11.3	151.6
15	0.099	1.0	21.3	151.9
16	0.19	1.0	31.2	152.1
17	1.0	1.0	-37.5	131.8
18	0.081	1.0	-27.3	131.9
19	0.113	1.0	-17.2	132.0
20	1.0	1.0	-7.1	132.1
21	1.0	1.0	2.9	132.2
22	0.405	1.0	12.9	132.4
23	0.385	1.0	22.9	132.6
24	0.367	1.0	32.9	132.9
25	0.76	1.0	-36.0	112.6
26	0.711	1.0	-25.9	112.6
27	0.635	1.0	-15.7	112.7
28	1.0	1.0	-5.6	112.8
29	0.526	1.0	4.4	113.0
30	0.625	1.0	14.4	113.2
31	0.608	1.0	24.4	113.4
32	1.0	1.0	34.3	113.6
33	1.0	1.0	-34.7	93.4
34	0.907	1.0	-24.6	93.4
35	0.969	1.0	-14.5	93.5
36	0.859	1.0	-4.4	93.6
37	1.0	1.0	5.7	93.8
38	0.913	1.0	15.7	93.9
39	0.794	1.0	25.7	94.2
40	0.788	1.0	35.6	94.4
41	1.333	1.0	-33.7	74.1
42	1.191	1.0	-23.5	74.2
43	1.201	1.0	-13.4	74.3
44	1.072	1.0	-3.3	74.4
45	0.947	1.0	6.8	74.5
46	1.192	1.0	16.8	74.7
47	1.071	1.0	26.8	74.9
48	1.0	1.0	36.7	75.2
49	1.422	1.0	-32.8	54.9
50	1.394	1.0	-22.6	54.9
51	1.0	1.0	-12.5	55.0
52	1.041	1.0	-2.4	55.1
53	1.182	1.0	7.6	55.3
54	1.254	1.0	17.7	55.5
55	1.0	1.0	27.6	55.7
56	1.022	1.0	37.6	55.9
57	1.874	1.0	-32.1	35.7
58	1.215	1.0	-21.9	35.7
59	1.427	1.0	-11.8	35.8
60	1.409	1.0	-1.7	35.9
61	1.212	1.0	8.3	36.1
62	1.452	1.0	18.4	36.2
63	1.242	1.0	28.3	36.5
64	1.093	1.0	38.3	36.7
65	1.185	1.0	-31.6	16.4
66	1.223	1.0	-21.4	16.5
67	1.0	1.0	-11.3	16.6
68	1.0	1.0	-1.2	16.7
69	1.229	1.0	8.8	16.8
70	1.0	1.0	18.8	17.0
71	1.0	1.0	28.8	17.2
72	1.0	1.0	38.8	17.5
73	1.169	1.0	-31.3	-2.8
74	1.0	1.0	-21.1	-2.7
75	1.149	1.0	-11.0	-2.7
76	1.0	1.0	-0.9	-2.5
77	1.435	1.0	9.1	-2.4
78	1.0	1.0	19.2	-2.2
79	1.0	1.0	29.1	-2.0
80	1.0	1.0	39.1	-1.7
81	1.0	1.0	-31.2	-22.0
82	1.0	1.0	-21.0	-22.0
83	1.139	1.0	-10.9	-21.9
84	1.215	1.0	-0.8	-21.8
85	1.0	1.0	9.2	-21.6
86	1.0	1.0	19.3	-21.4
87	1.0	1.0	29.2	-21.2
88	2.02	1.0	39.2	-21.0
89	1.0	1.0	-31.3	-41.3
90	1.0	1.0	-21.1	-41.2
91	1.112	1.0	-11.0	-41.1
92	1.0	1.0	-0.9	-41.0
93	1.371	1.0	9.2	-40.9
94	1.58	1.0	19.2	-40.7
95	1.624	1.0	29.1	-40.5
96	1.0	1.0	39.1	-40.2
97	1.0	1.0	-31.6	-60.5
98	0.921	1.0	-21.4	-60.4
99	0.913	1.0	-11.3	-60.4
100	0.841	1.0	-1.2	-60.2
101	1.0	1.0	8.9	-60.1
102	1.192	1.0	18.9	-59.9
103	1.0	1.0	28.9	-59.7
104	1.0	1.0	38.8	-59.4
105	0.856	1.0	-32.0	-79.7
106	0.837	1.0	-21.9	-79.7
107	0.805	1.0	-11.8	-79.6
108	1.0	1.0	-1.7	-79.5
109	1.037	1.0	8.4	-79.3
110	1.118	1.0	18.4	-79.1
111	0.968	1.0	28.4	-78.9
112	1.0	1.0	38.3	-78.7
113	0.558	1.0	-32.7	-98.9
114	0.597	1.0	-22.6	-98.9
115	0.569	1.0	-12.4	-98.8
116	0.522	1.0	-2.3	-98.7
117	0.643	1.0	7.7	-98.5
118	0.734	1.0	17.7	-98.4
119	1.146	1.0	27.7	-98.1
120	0.672	1.0	37.6	-97.9
121	0.165	1.0	-33.6	-118.2
122	0.186	1.0	-23.4	-118.1
123	0.197	1.0	-13.3	-118.0
124	0.184	1.0	-3.2	-117.9
125	0.249	1.0	6.8	-117.8
126	0.272	1.0	16.9	-117.6
127	0.262	1.0	26.8	-117.4
128	0.258	1.0	36.8	-117.1
